!   File created by the GAMESS Input Deck Generator Plugin for Avogadro
 $BASIS GBASIS=STO NGAUSS=3 $END
 $CONTRL SCFTYP=RHF RUNTYP=ENERGY $END

 $DATA 
Title
C1
C     6.0    15.19082   -18.81050    -1.39926
C     6.0    15.01269   -20.34922    -1.46103
C     6.0    16.38038   -21.06194    -1.30887
C     6.0    17.07950   -20.64730     0.00000
C     6.0    17.07950   -19.12430     0.00000
C     6.0    15.81709   -18.42764    -0.04283
N     7.0    17.07950   -17.60130     0.00000
H     1.0    17.31624   -17.30003    -0.97175
H     1.0    14.20573   -18.30861    -1.49976
H     1.0    15.82787   -18.48495    -2.25216
H     1.0    14.55121   -20.63399    -2.43066
H     1.0    14.33383   -20.67481    -0.64227
H     1.0    17.02337   -20.76730    -2.16823
H     1.0    16.25116   -22.16483    -1.33839
H     1.0    18.10848   -21.07032     0.03406
H     1.0    16.48926   -21.03693     0.86264
H     1.0    17.55019   -19.12515     1.01017
H     1.0    15.26818   -18.60546     0.90753
 $END
