!   File created by the GAMESS Input Deck Generator Plugin for Avogadro
 $BASIS GBASIS=STO NGAUSS=3 $END
 $CONTRL SCFTYP=RHF RUNTYP=ENERGY $END

 $DATA 
Title
C1
C     6.0    -1.16864     0.71929     0.00000
C     6.0    -1.17236    -0.67686    -0.00000
C     6.0     0.03860    -1.37171    -0.00000
C     6.0     1.23884    -0.65572    -0.00000
N     7.0     1.22141     0.70518    -0.00000
C     6.0     0.05155     1.40072     0.00000
H     1.0    -2.10134     1.26835    -0.00000
H     1.0    -2.10969    -1.21803     0.00000
H     1.0     0.04776    -2.45399     0.00000
H     1.0     2.18392    -1.18214     0.00000
H     1.0     0.06820     2.48240    -0.00000
 $END
